minerios_relax/minerios_pl_relax.txt
3 3

Pilha1 1500
Pilha2 2000
Pilha3 1700

Ferro    52 39 47    44 49     150 100
Silica   5  7  4     0  8      200 120
Aluminio 50 10 5     0  4.5    180 90

2

